c defined variables: 33 34 35 36 37 38 39 40 41 42 43 44 45 46 47 48 49 50 51 52 53 54 55 56 57 58 59 60 61 62 63 64 65 66 67 68 69 70 71 72 73 74 75 76 77 78 79 80 81 82 83 84 85 86 87 88 89 90 91 92 93 94 95 96 97 98 99 100 101 102 103 104 105 106 107 108 109 110 111 112 113 114 115 116 117 118 119 120 121 122 123 124 125 126 127 128 129 130 131 132 133 134 135 136 137 138 139 140 141 142 143 144 145 146 147 148 149 150 151 152 153 154 155 156 157 158 159 160 161 162 163 164 165 166 167 231 232 233 234 235 236 237 238 239 240 241 242 243 247 248 250 251 252 253 254 255 256 257 258 259 260 261 262 264 265 267 268 272 276 278 279 280 281 282 283 284 285 286 287 288 289 290 291 292 293 296 297 298 300 302 303 304 305 306 307 308 309 310 311 312 313 314 315 316 317 318 319 320 321 323 324 325 326 327 328 329 330 331 332 334 336 337 339 340 341 342 343 344 
p cnf 1453 2141
a 1 2 3 4 5 6 7 8 9 10 11 12 13 14 15 16 17 18 19 20 21 22 23 24 25 26 27 28 29 30 31 32 187 188 189 190 191 192 193 194 195 196 197 198 199 200 201 202 203 204 205 206 207 208 209 210 211 212 213 214 215 216 217 218 219 220 221 222 223 224 225 226 227 228 0
e 33 34 35 36 37 38 39 40 41 42 43 44 45 46 47 48 49 50 51 52 53 54 55 56 57 58 59 60 61 62 63 64 65 66 67 68 69 70 71 72 73 74 75 76 77 78 79 80 81 82 83 84 85 86 87 88 89 90 91 92 93 94 95 96 97 98 99 100 101 102 103 104 105 106 107 108 109 110 111 112 113 114 115 116 117 118 119 120 121 122 123 124 125 126 127 128 129 130 131 132 133 134 135 136 137 138 139 140 141 142 143 144 145 146 147 148 149 150 151 152 153 154 155 156 157 158 159 160 161 162 163 164 165 166 167 231 232 233 234 235 236 237 238 239 240 241 242 243 247 248 250 251 252 253 254 255 256 257 258 259 260 261 262 264 265 267 268 272 276 278 279 280 281 282 283 284 285 286 287 288 289 290 291 292 293 296 297 298 300 302 303 304 305 306 307 308 309 310 311 312 313 314 315 316 317 318 319 320 321 323 324 325 326 327 328 329 330 331 332 334 336 337 339 340 341 342 343 344 1165 1166 1167 1168 1169 1170 1171 1172 1173 1174 1175 1176 1177 1178 1179 1180 1181 1182 1183 1184 1185 1186 1187 1188 1189 1190 1191 1192 1193 1194 1195 1196 1197 1198 1199 1200 1201 1202 1203 1204 1205 1206 1207 1208 1209 1210 1211 1212 1213 1214 1215 1216 1217 1218 1219 1220 1221 1222 1223 1224 1225 1226 1227 1228 1229 1230 1231 1232 1233 1234 1235 1236 1237 1238 1239 1240 1241 1242 1243 1244 1245 1246 1247 1248 1249 1250 1251 1252 1253 1254 1255 1256 1257 1258 1259 1260 1261 1262 1263 1264 1265 1266 1267 1268 1269 1270 1271 1272 1273 1274 1275 1276 1277 1278 1279 1280 1281 1282 1283 1284 1285 1286 1287 1288 1289 1290 1291 1292 1293 1294 1295 1296 1297 1298 1299 1300 1301 1302 1303 1304 1305 1306 1307 1308 1309 1310 1311 1312 1313 1314 1315 1316 1317 1318 1319 1320 1321 1322 1323 1324 1325 1326 1327 1328 1329 1330 1331 1332 1333 1334 1335 1336 1337 1338 1339 1340 1341 1342 1343 1344 1345 1346 1347 1348 1349 1350 1351 1352 1353 1354 1355 1356 1357 1358 1359 1360 1361 1362 1363 1364 1365 1366 1367 1368 1369 1370 1371 1372 1373 1374 1375 1376 1377 1378 1379 1380 1381 1382 1383 1384 1385 1386 1387 1388 1389 1390 1391 1392 1393 1394 1395 1396 1397 1398 1399 1400 1401 1402 1403 1404 1405 1406 1407 1408 1409 1410 1411 1412 1413 1414 1415 1416 1417 1418 1419 1420 1421 1422 1423 1424 1425 1426 1427 1428 1429 1430 1431 1432 1433 1434 1435 1436 1437 1438 1439 1440 1441 1442 1443 1444 1445 1446 1447 1448 1449 1450 1451 1452 1453 0
d 168 187 188 0
d 169 191 192 0
d 170 189 190 0
d 171 199 200 0
d 172 205 206 207 208 209 210 211 212 213 214 0
d 173 205 206 207 208 209 210 211 212 213 214 0
d 174 203 204 0
d 175 193 194 0
d 176 197 198 0
d 177 201 202 0
d 178 195 196 0
d 179 215 216 217 218 219 220 221 222 223 224 225 226 227 228 0
d 180 215 216 217 218 219 220 221 222 223 224 225 226 227 228 0
d 181 215 216 217 218 219 220 221 222 223 224 225 226 227 228 0
d 182 215 216 217 218 219 220 221 222 223 224 225 226 227 228 0
d 183 215 216 217 218 219 220 221 222 223 224 225 226 227 228 0
d 184 215 216 217 218 219 220 221 222 223 224 225 226 227 228 0
d 185 215 216 217 218 219 220 221 222 223 224 225 226 227 228 0
d 186 215 216 217 218 219 220 221 222 223 224 225 226 227 228 0
d 229 1 2 3 4 5 6 7 8 9 10 11 12 13 14 15 16 17 18 19 20 21 22 23 24 25 26 27 28 29 30 31 32 187 188 189 190 191 192 193 194 195 196 197 198 199 200 201 202 203 204 205 206 207 208 209 210 211 212 213 214 215 216 217 218 219 220 221 222 223 224 225 226 227 228 0
d 230 1 2 3 4 5 6 7 8 9 10 11 12 13 14 15 16 17 18 19 20 21 22 23 24 25 26 27 28 29 30 31 32 187 188 189 190 191 192 193 194 195 196 197 198 199 200 201 202 203 204 205 206 207 208 209 210 211 212 213 214 215 216 217 218 219 220 221 222 223 224 225 226 227 228 0
d 244 1 2 3 4 5 6 7 8 9 10 11 12 13 14 15 16 17 18 19 20 21 22 23 24 25 26 27 28 29 30 31 32 187 188 189 190 191 192 193 194 195 196 197 198 199 200 201 202 203 204 205 206 207 208 209 210 211 212 213 214 215 216 217 218 219 220 221 222 223 224 225 226 227 228 0
d 245 1 2 3 4 5 6 7 8 9 10 11 12 13 14 15 16 17 18 19 20 21 22 23 24 25 26 27 28 29 30 31 32 187 188 189 190 191 192 193 194 195 196 197 198 199 200 201 202 203 204 205 206 207 208 209 210 211 212 213 214 215 216 217 218 219 220 221 222 223 224 225 226 227 228 0
d 246 1 2 3 4 5 6 7 8 9 10 11 12 13 14 15 16 17 18 19 20 21 22 23 24 25 26 27 28 29 30 31 32 187 188 189 190 191 192 193 194 195 196 197 198 199 200 201 202 203 204 205 206 207 208 209 210 211 212 213 214 215 216 217 218 219 220 221 222 223 224 225 226 227 228 0
d 249 1 2 3 4 5 6 7 8 9 10 11 12 13 14 15 16 17 18 19 20 21 22 23 24 25 26 27 28 29 30 31 32 187 188 189 190 191 192 193 194 195 196 197 198 199 200 201 202 203 204 205 206 207 208 209 210 211 212 213 214 215 216 217 218 219 220 221 222 223 224 225 226 227 228 0
d 263 1 2 3 4 5 6 7 8 9 10 11 12 13 14 15 16 17 18 19 20 21 22 23 24 25 26 27 28 29 30 31 32 187 188 189 190 191 192 193 194 195 196 197 198 199 200 201 202 203 204 205 206 207 208 209 210 211 212 213 214 215 216 217 218 219 220 221 222 223 224 225 226 227 228 0
d 266 1 2 3 4 5 6 7 8 9 10 11 12 13 14 15 16 17 18 19 20 21 22 23 24 25 26 27 28 29 30 31 32 187 188 189 190 191 192 193 194 195 196 197 198 199 200 201 202 203 204 205 206 207 208 209 210 211 212 213 214 215 216 217 218 219 220 221 222 223 224 225 226 227 228 0
d 269 1 2 3 4 5 6 7 8 9 10 11 12 13 14 15 16 17 18 19 20 21 22 23 24 25 26 27 28 29 30 31 32 187 188 189 190 191 192 193 194 195 196 197 198 199 200 201 202 203 204 205 206 207 208 209 210 211 212 213 214 215 216 217 218 219 220 221 222 223 224 225 226 227 228 0
d 270 1 2 3 4 5 6 7 8 9 10 11 12 13 14 15 16 17 18 19 20 21 22 23 24 25 26 27 28 29 30 31 32 187 188 189 190 191 192 193 194 195 196 197 198 199 200 201 202 203 204 205 206 207 208 209 210 211 212 213 214 215 216 217 218 219 220 221 222 223 224 225 226 227 228 0
d 271 1 2 3 4 5 6 7 8 9 10 11 12 13 14 15 16 17 18 19 20 21 22 23 24 25 26 27 28 29 30 31 32 187 188 189 190 191 192 193 194 195 196 197 198 199 200 201 202 203 204 205 206 207 208 209 210 211 212 213 214 215 216 217 218 219 220 221 222 223 224 225 226 227 228 0
d 273 1 2 3 4 5 6 7 8 9 10 11 12 13 14 15 16 17 18 19 20 21 22 23 24 25 26 27 28 29 30 31 32 187 188 189 190 191 192 193 194 195 196 197 198 199 200 201 202 203 204 205 206 207 208 209 210 211 212 213 214 215 216 217 218 219 220 221 222 223 224 225 226 227 228 0
d 274 1 2 3 4 5 6 7 8 9 10 11 12 13 14 15 16 17 18 19 20 21 22 23 24 25 26 27 28 29 30 31 32 187 188 189 190 191 192 193 194 195 196 197 198 199 200 201 202 203 204 205 206 207 208 209 210 211 212 213 214 215 216 217 218 219 220 221 222 223 224 225 226 227 228 0
d 275 1 2 3 4 5 6 7 8 9 10 11 12 13 14 15 16 17 18 19 20 21 22 23 24 25 26 27 28 29 30 31 32 187 188 189 190 191 192 193 194 195 196 197 198 199 200 201 202 203 204 205 206 207 208 209 210 211 212 213 214 215 216 217 218 219 220 221 222 223 224 225 226 227 228 0
d 277 1 2 3 4 5 6 7 8 9 10 11 12 13 14 15 16 17 18 19 20 21 22 23 24 25 26 27 28 29 30 31 32 187 188 189 190 191 192 193 194 195 196 197 198 199 200 201 202 203 204 205 206 207 208 209 210 211 212 213 214 215 216 217 218 219 220 221 222 223 224 225 226 227 228 0
d 294 1 2 3 4 5 6 7 8 9 10 11 12 13 14 15 16 17 18 19 20 21 22 23 24 25 26 27 28 29 30 31 32 187 188 189 190 191 192 193 194 195 196 197 198 199 200 201 202 203 204 205 206 207 208 209 210 211 212 213 214 215 216 217 218 219 220 221 222 223 224 225 226 227 228 0
d 295 1 2 3 4 5 6 7 8 9 10 11 12 13 14 15 16 17 18 19 20 21 22 23 24 25 26 27 28 29 30 31 32 187 188 189 190 191 192 193 194 195 196 197 198 199 200 201 202 203 204 205 206 207 208 209 210 211 212 213 214 215 216 217 218 219 220 221 222 223 224 225 226 227 228 0
d 299 1 2 3 4 5 6 7 8 9 10 11 12 13 14 15 16 17 18 19 20 21 22 23 24 25 26 27 28 29 30 31 32 187 188 189 190 191 192 193 194 195 196 197 198 199 200 201 202 203 204 205 206 207 208 209 210 211 212 213 214 215 216 217 218 219 220 221 222 223 224 225 226 227 228 0
d 301 1 2 3 4 5 6 7 8 9 10 11 12 13 14 15 16 17 18 19 20 21 22 23 24 25 26 27 28 29 30 31 32 187 188 189 190 191 192 193 194 195 196 197 198 199 200 201 202 203 204 205 206 207 208 209 210 211 212 213 214 215 216 217 218 219 220 221 222 223 224 225 226 227 228 0
d 322 1 2 3 4 5 6 7 8 9 10 11 12 13 14 15 16 17 18 19 20 21 22 23 24 25 26 27 28 29 30 31 32 187 188 189 190 191 192 193 194 195 196 197 198 199 200 201 202 203 204 205 206 207 208 209 210 211 212 213 214 215 216 217 218 219 220 221 222 223 224 225 226 227 228 0
d 333 1 2 3 4 5 6 7 8 9 10 11 12 13 14 15 16 17 18 19 20 21 22 23 24 25 26 27 28 29 30 31 32 187 188 189 190 191 192 193 194 195 196 197 198 199 200 201 202 203 204 205 206 207 208 209 210 211 212 213 214 215 216 217 218 219 220 221 222 223 224 225 226 227 228 0
d 335 1 2 3 4 5 6 7 8 9 10 11 12 13 14 15 16 17 18 19 20 21 22 23 24 25 26 27 28 29 30 31 32 187 188 189 190 191 192 193 194 195 196 197 198 199 200 201 202 203 204 205 206 207 208 209 210 211 212 213 214 215 216 217 218 219 220 221 222 223 224 225 226 227 228 0
d 338 1 2 3 4 5 6 7 8 9 10 11 12 13 14 15 16 17 18 19 20 21 22 23 24 25 26 27 28 29 30 31 32 187 188 189 190 191 192 193 194 195 196 197 198 199 200 201 202 203 204 205 206 207 208 209 210 211 212 213 214 215 216 217 218 219 220 221 222 223 224 225 226 227 228 0
d 345 1 2 3 4 5 6 7 8 9 10 11 12 13 14 15 16 17 18 19 20 21 22 23 24 25 26 27 28 29 30 31 32 187 188 189 190 191 192 193 194 195 196 197 198 199 200 201 202 203 204 205 206 207 208 209 210 211 212 213 214 215 216 217 218 219 220 221 222 223 224 225 226 227 228 0
1165 -33 0
-1165 33 0
1166 -34 0
-1166 34 0
-1167 -35 0
1167 35 0
1168 -36 0
-1168 36 0
1169 -37 0
-1169 37 0
-1170 -38 0
1170 38 0
1171 -39 0
-1171 39 0
1172 -40 0
-1172 40 0
-1173 -41 0
1173 41 0
-12 -42 0
12 42 0
-1174 -43 0
1174 43 0
-11 -44 0
11 44 0
-1175 -45 0
1175 45 0
-10 -46 0
10 46 0
-1176 -47 0
1176 47 0
-9 -48 0
9 48 0
-1177 -49 0
1177 49 0
-49 -50 0
49 50 0
1178 -51 0
-1178 51 0
1180 -52 0
-1180 52 0
1182 -53 0
-1182 53 0
-1185 -54 0
1185 54 0
1186 -55 0
-1186 55 0
1187 -56 0
-1187 56 0
-1188 -57 0
1188 57 0
1189 -58 0
-1189 58 0
1190 -59 0
-1190 59 0
1191 -60 0
-1191 60 0
1192 -61 0
-1192 61 0
-1193 -62 0
1193 62 0
1194 -63 0
-1194 63 0
1195 -64 0
-1195 64 0
-1196 -65 0
1196 65 0
1197 -66 0
-1197 66 0
1198 -67 0
-1198 67 0
-1199 -68 0
1199 68 0
1200 -69 0
-1200 69 0
1201 -70 0
-1201 70 0
-1202 -71 0
1202 71 0
-8 -72 0
8 72 0
-1203 -73 0
1203 73 0
-7 -74 0
7 74 0
-1204 -75 0
1204 75 0
-6 -76 0
6 76 0
-1205 -77 0
1205 77 0
-5 -78 0
5 78 0
-1206 -79 0
1206 79 0
-79 -80 0
79 80 0
1207 -81 0
-1207 81 0
1209 -82 0
-1209 82 0
1211 -83 0
-1211 83 0
-1214 -84 0
1214 84 0
1215 -85 0
-1215 85 0
1216 -86 0
-1216 86 0
-1217 -87 0
1217 87 0
1218 -88 0
-1218 88 0
1219 -89 0
-1219 89 0
1220 -90 0
-1220 90 0
1221 -91 0
-1221 91 0
-1222 -92 0
1222 92 0
1223 -93 0
-1223 93 0
1224 -94 0
-1224 94 0
-1225 -95 0
1225 95 0
1226 -96 0
-1226 96 0
1227 -97 0
-1227 97 0
-1228 -98 0
1228 98 0
1229 -99 0
-1229 99 0
1230 -100 0
-1230 100 0
-1231 -101 0
1231 101 0
-4 -102 0
4 102 0
-1232 -103 0
1232 103 0
-3 -104 0
3 104 0
-1233 -105 0
1233 105 0
-2 -106 0
2 106 0
-1234 -107 0
1234 107 0
-1 -108 0
1 108 0
-1235 -109 0
1235 109 0
-109 -110 0
109 110 0
1236 -111 0
-1236 111 0
1238 -112 0
-1238 112 0
1240 -113 0
-1240 113 0
-1243 -114 0
1243 114 0
1244 -115 0
-1244 115 0
1245 -116 0
-1245 116 0
-1246 -117 0
1246 117 0
1247 -118 0
-1247 118 0
1248 -119 0
-1248 119 0
1249 -120 0
-1249 120 0
1250 -121 0
-1250 121 0
-1251 -122 0
1251 122 0
1252 -123 0
-1252 123 0
1253 -124 0
-1253 124 0
-1254 -125 0
1254 125 0
1255 -126 0
-1255 126 0
1256 -127 0
-1256 127 0
-1257 -128 0
1257 128 0
1258 -129 0
-1258 129 0
1259 -130 0
-1259 130 0
-1260 -131 0
1260 131 0
-16 -132 0
16 132 0
-1261 -133 0
1261 133 0
-15 -134 0
15 134 0
-1262 -135 0
1262 135 0
-14 -136 0
14 136 0
-1263 -137 0
1263 137 0
-13 -138 0
13 138 0
-1264 -139 0
1264 139 0
-139 -140 0
139 140 0
1265 -141 0
-1265 141 0
1267 -142 0
-1267 142 0
1269 -143 0
-1269 143 0
-1272 -144 0
1272 144 0
1273 -145 0
-1273 145 0
1274 -146 0
-1274 146 0
-1275 -147 0
1275 147 0
1276 -148 0
-1276 148 0
1277 -149 0
-1277 149 0
-144 -150 0
144 150 0
-1278 -151 0
1278 151 0
-54 -152 0
54 152 0
-1279 -153 0
1279 153 0
-84 -154 0
84 154 0
-1280 -155 0
1280 155 0
-114 -156 0
114 156 0
-1281 -157 0
1281 157 0
-157 -158 0
157 158 0
1282 -159 0
-1282 159 0
1284 -160 0
-1284 160 0
1286 -161 0
-1286 161 0
-1289 -162 0
1289 162 0
1290 -163 0
-1290 163 0
1291 -164 0
-1291 164 0
-1292 -165 0
1292 165 0
1293 -166 0
-1293 166 0
1294 -167 0
-1294 167 0
1165 -231 0
-1165 231 0
1166 -232 0
-1166 232 0
-1295 -233 0
1295 233 0
1168 -234 0
-1168 234 0
1169 -235 0
-1169 235 0
-1296 -236 0
1296 236 0
-12 -237 0
12 237 0
-1297 -238 0
1297 238 0
-10 -239 0
10 239 0
-1298 -240 0
1298 240 0
-9 -241 0
9 241 0
-1299 -242 0
1299 242 0
-242 -243 0
242 243 0
-1302 -247 0
1302 247 0
-247 -248 0
247 248 0
1197 -250 0
-1197 250 0
1198 -251 0
-1198 251 0
-1303 -252 0
1303 252 0
1200 -253 0
-1200 253 0
1201 -254 0
-1201 254 0
-1304 -255 0
1304 255 0
-8 -256 0
8 256 0
-256 -257 0
256 257 0
-1305 -258 0
1305 258 0
-7 -259 0
7 259 0
-1306 -260 0
1306 260 0
-6 -261 0
6 261 0
-1307 -262 0
1307 262 0
1308 -264 0
-1308 264 0
1310 -265 0
-1310 265 0
-1313 -267 0
1313 267 0
-267 -268 0
267 268 0
-271 -272 0
271 272 0
-1316 -276 0
1316 276 0
1229 -278 0
-1229 278 0
1230 -279 0
-1230 279 0
-1317 -280 0
1317 280 0
1252 -281 0
-1252 281 0
1253 -282 0
-1253 282 0
-1318 -283 0
1318 283 0
1258 -284 0
-1258 284 0
1259 -285 0
-1259 285 0
-1319 -286 0
1319 286 0
-15 -287 0
15 287 0
-1320 -288 0
1320 288 0
-14 -289 0
14 289 0
-1321 -290 0
1321 290 0
1273 -291 0
-1273 291 0
1274 -292 0
-1274 292 0
-1322 -293 0
1322 293 0
1215 -296 0
-1215 296 0
1216 -297 0
-1216 297 0
-1323 -298 0
1323 298 0
1326 -300 0
-1326 300 0
1329 -302 0
-1329 302 0
1331 -303 0
-1331 303 0
1334 -304 0
-1334 304 0
1337 -305 0
-1337 305 0
1340 -306 0
-1340 306 0
1343 -307 0
-1343 307 0
1346 -308 0
-1346 308 0
1349 -309 0
-1349 309 0
1352 -310 0
-1352 310 0
1355 -311 0
-1355 311 0
1358 -312 0
-1358 312 0
1361 -313 0
-1361 313 0
1364 -314 0
-1364 314 0
1367 -315 0
-1367 315 0
1370 -316 0
-1370 316 0
1373 -317 0
-1373 317 0
1376 -318 0
-1376 318 0
1379 -319 0
-1379 319 0
1382 -320 0
-1382 320 0
1385 -321 0
-1385 321 0
1388 -323 0
-1388 323 0
1391 -324 0
-1391 324 0
-1397 -325 0
1397 325 0
1400 -326 0
-1400 326 0
1403 -327 0
-1403 327 0
1406 -328 0
-1406 328 0
1409 -329 0
-1409 329 0
1412 -330 0
-1412 330 0
1415 -331 0
-1415 331 0
1423 -332 0
-1423 332 0
-1429 -334 0
1429 334 0
-1432 -336 0
1432 336 0
1435 -337 0
-1435 337 0
1438 -339 0
-1438 339 0
1441 -340 0
-1441 340 0
1444 -341 0
-1444 341 0
1447 -342 0
-1447 342 0
1450 -343 0
-1450 343 0
1453 -344 0
-1453 344 0
-33 -11 0
-33 27 0
11 -27 33 0
-34 11 0
-34 -27 0
-11 27 34 0
-33 35 0
-34 35 0
-35 33 34 0
-36 -10 0
-36 26 0
10 -26 36 0
-37 10 0
-37 -26 0
-10 26 37 0
-36 38 0
-37 38 0
-38 36 37 0
-39 -9 0
-39 25 0
9 -25 39 0
-40 9 0
-40 -25 0
-9 25 40 0
-39 41 0
-40 41 0
-41 39 40 0
-12 -42 0
12 42 0
-42 43 0
-28 43 0
-43 42 28 0
-11 -44 0
11 44 0
-44 45 0
-27 45 0
-45 44 27 0
-10 -46 0
10 46 0
-46 47 0
-26 47 0
-47 46 26 0
-9 -48 0
9 48 0
-48 49 0
-25 49 0
-49 48 25 0
-49 -50 0
49 50 0
-51 -41 0
-51 -47 0
41 47 51 0
-52 -38 0
-52 -41 0
-52 -45 0
38 41 45 52 0
-53 -35 0
-53 -38 0
-53 -41 0
-53 -43 0
35 38 41 43 53 0
-50 54 0
-51 54 0
-52 54 0
-53 54 0
-54 50 51 52 53 0
-55 -12 0
-55 28 0
12 -28 55 0
-56 12 0
-56 -28 0
-12 28 56 0
-55 57 0
-56 57 0
-57 55 56 0
-58 -57 0
-58 -35 0
-58 -38 0
-58 -41 0
57 35 38 41 58 0
-59 -54 0
-59 -58 0
54 58 59 0
-60 -54 0
-60 59 0
54 -59 60 0
-61 54 0
-61 -59 0
-54 59 61 0
-60 62 0
-61 62 0
-62 60 61 0
-63 -7 0
-63 23 0
7 -23 63 0
-64 7 0
-64 -23 0
-7 23 64 0
-63 65 0
-64 65 0
-65 63 64 0
-66 -6 0
-66 22 0
6 -22 66 0
-67 6 0
-67 -22 0
-6 22 67 0
-66 68 0
-67 68 0
-68 66 67 0
-69 -5 0
-69 21 0
5 -21 69 0
-70 5 0
-70 -21 0
-5 21 70 0
-69 71 0
-70 71 0
-71 69 70 0
-8 -72 0
8 72 0
-72 73 0
-24 73 0
-73 72 24 0
-7 -74 0
7 74 0
-74 75 0
-23 75 0
-75 74 23 0
-6 -76 0
6 76 0
-76 77 0
-22 77 0
-77 76 22 0
-5 -78 0
5 78 0
-78 79 0
-21 79 0
-79 78 21 0
-79 -80 0
79 80 0
-81 -71 0
-81 -77 0
71 77 81 0
-82 -68 0
-82 -71 0
-82 -75 0
68 71 75 82 0
-83 -65 0
-83 -68 0
-83 -71 0
-83 -73 0
65 68 71 73 83 0
-80 84 0
-81 84 0
-82 84 0
-83 84 0
-84 80 81 82 83 0
-85 -8 0
-85 24 0
8 -24 85 0
-86 8 0
-86 -24 0
-8 24 86 0
-85 87 0
-86 87 0
-87 85 86 0
-88 -87 0
-88 -65 0
-88 -68 0
-88 -71 0
87 65 68 71 88 0
-89 -84 0
-89 -88 0
84 88 89 0
-90 -84 0
-90 89 0
84 -89 90 0
-91 84 0
-91 -89 0
-84 89 91 0
-90 92 0
-91 92 0
-92 90 91 0
-93 -3 0
-93 19 0
3 -19 93 0
-94 3 0
-94 -19 0
-3 19 94 0
-93 95 0
-94 95 0
-95 93 94 0
-96 -2 0
-96 18 0
2 -18 96 0
-97 2 0
-97 -18 0
-2 18 97 0
-96 98 0
-97 98 0
-98 96 97 0
-99 -1 0
-99 17 0
1 -17 99 0
-100 1 0
-100 -17 0
-1 17 100 0
-99 101 0
-100 101 0
-101 99 100 0
-4 -102 0
4 102 0
-102 103 0
-20 103 0
-103 102 20 0
-3 -104 0
3 104 0
-104 105 0
-19 105 0
-105 104 19 0
-2 -106 0
2 106 0
-106 107 0
-18 107 0
-107 106 18 0
-1 -108 0
1 108 0
-108 109 0
-17 109 0
-109 108 17 0
-109 -110 0
109 110 0
-111 -101 0
-111 -107 0
101 107 111 0
-112 -98 0
-112 -101 0
-112 -105 0
98 101 105 112 0
-113 -95 0
-113 -98 0
-113 -101 0
-113 -103 0
95 98 101 103 113 0
-110 114 0
-111 114 0
-112 114 0
-113 114 0
-114 110 111 112 113 0
-115 -4 0
-115 20 0
4 -20 115 0
-116 4 0
-116 -20 0
-4 20 116 0
-115 117 0
-116 117 0
-117 115 116 0
-118 -117 0
-118 -95 0
-118 -98 0
-118 -101 0
117 95 98 101 118 0
-119 -114 0
-119 -118 0
114 118 119 0
-120 -114 0
-120 119 0
114 -119 120 0
-121 114 0
-121 -119 0
-114 119 121 0
-120 122 0
-121 122 0
-122 120 121 0
-123 -15 0
-123 31 0
15 -31 123 0
-124 15 0
-124 -31 0
-15 31 124 0
-123 125 0
-124 125 0
-125 123 124 0
-126 -14 0
-126 30 0
14 -30 126 0
-127 14 0
-127 -30 0
-14 30 127 0
-126 128 0
-127 128 0
-128 126 127 0
-129 -13 0
-129 29 0
13 -29 129 0
-130 13 0
-130 -29 0
-13 29 130 0
-129 131 0
-130 131 0
-131 129 130 0
-16 -132 0
16 132 0
-132 133 0
-32 133 0
-133 132 32 0
-15 -134 0
15 134 0
-134 135 0
-31 135 0
-135 134 31 0
-14 -136 0
14 136 0
-136 137 0
-30 137 0
-137 136 30 0
-13 -138 0
13 138 0
-138 139 0
-29 139 0
-139 138 29 0
-139 -140 0
139 140 0
-141 -131 0
-141 -137 0
131 137 141 0
-142 -128 0
-142 -131 0
-142 -135 0
128 131 135 142 0
-143 -125 0
-143 -128 0
-143 -131 0
-143 -133 0
125 128 131 133 143 0
-140 144 0
-141 144 0
-142 144 0
-143 144 0
-144 140 141 142 143 0
-145 -16 0
-145 32 0
16 -32 145 0
-146 16 0
-146 -32 0
-16 32 146 0
-145 147 0
-146 147 0
-147 145 146 0
-148 -147 0
-148 -125 0
-148 -128 0
-148 -131 0
147 125 128 131 148 0
-149 -144 0
-149 -148 0
144 148 149 0
-144 -150 0
144 150 0
-150 151 0
-149 151 0
-151 150 149 0
-54 -152 0
54 152 0
-152 153 0
-59 153 0
-153 152 59 0
-84 -154 0
84 154 0
-154 155 0
-89 155 0
-155 154 89 0
-114 -156 0
114 156 0
-156 157 0
-119 157 0
-157 156 119 0
-157 -158 0
157 158 0
-159 -122 0
-159 -155 0
122 155 159 0
-160 -92 0
-160 -122 0
-160 -153 0
92 122 153 160 0
-161 -62 0
-161 -92 0
-161 -122 0
-161 -151 0
62 92 122 151 161 0
-158 162 0
-159 162 0
-160 162 0
-161 162 0
-162 158 159 160 161 0
-163 -144 0
-163 149 0
144 -149 163 0
-164 144 0
-164 -149 0
-144 149 164 0
-163 165 0
-164 165 0
-165 163 164 0
-166 -165 0
-166 -62 0
-166 -92 0
-166 -122 0
165 62 92 122 166 0
-167 -162 0
-167 -166 0
162 166 167 0
-180 -229 0
180 229 0
-229 230 0
-181 230 0
-230 229 181 0
-231 -11 0
-231 27 0
11 -27 231 0
-232 11 0
-232 -27 0
-11 27 232 0
-231 233 0
-232 233 0
-233 231 232 0
-234 -10 0
-234 26 0
10 -26 234 0
-235 10 0
-235 -26 0
-10 26 235 0
-234 236 0
-235 236 0
-236 234 235 0
-12 -237 0
12 237 0
-237 238 0
-28 238 0
-238 237 28 0
-10 -239 0
10 239 0
-239 240 0
-26 240 0
-240 239 26 0
-9 -241 0
9 241 0
-241 242 0
-25 242 0
-242 241 25 0
-242 -243 0
242 243 0
-244 -175 0
-244 -240 0
175 240 244 0
-245 -236 0
-245 -175 0
-245 -178 0
236 175 178 245 0
-246 -233 0
-246 -236 0
-246 -175 0
-246 -238 0
233 236 175 238 246 0
-243 247 0
-244 247 0
-245 247 0
-246 247 0
-247 243 244 245 246 0
-247 -248 0
247 248 0
-248 249 0
-183 249 0
-249 248 183 0
-250 -6 0
-250 22 0
6 -22 250 0
-251 6 0
-251 -22 0
-6 22 251 0
-250 252 0
-251 252 0
-252 250 251 0
-253 -5 0
-253 21 0
5 -21 253 0
-254 5 0
-254 -21 0
-5 21 254 0
-253 255 0
-254 255 0
-255 253 254 0
-8 -256 0
8 256 0
-256 -257 0
256 257 0
-257 258 0
-24 258 0
-258 257 24 0
-7 -259 0
7 259 0
-259 260 0
-23 260 0
-260 259 23 0
-6 -261 0
6 261 0
-261 262 0
-22 262 0
-262 261 22 0
-170 -263 0
170 263 0
-264 -255 0
-264 -262 0
255 262 264 0
-265 -252 0
-265 -255 0
-265 -260 0
252 255 260 265 0
-266 -169 0
-266 -252 0
-266 -255 0
-266 -258 0
169 252 255 258 266 0
-263 267 0
-264 267 0
-265 267 0
-266 267 0
-267 263 264 265 266 0
-267 -268 0
267 268 0
-268 269 0
-185 269 0
-269 268 185 0
-173 -270 0
173 270 0
-270 271 0
-172 271 0
-271 270 172 0
-271 -272 0
271 272 0
-273 -186 0
-273 -269 0
186 269 273 0
-274 -184 0
-274 -186 0
-274 -249 0
184 186 249 274 0
-275 -182 0
-275 -184 0
-275 -186 0
-275 -230 0
182 184 186 230 275 0
-272 276 0
-273 276 0
-274 276 0
-275 276 0
-276 272 273 274 275 0
-277 -276 0
-277 -179 0
276 179 277 0
-278 -1 0
-278 17 0
1 -17 278 0
-279 1 0
-279 -17 0
-1 17 279 0
-278 280 0
-279 280 0
-280 278 279 0
-281 -15 0
-281 31 0
15 -31 281 0
-282 15 0
-282 -31 0
-15 31 282 0
-281 283 0
-282 283 0
-283 281 282 0
-284 -13 0
-284 29 0
13 -29 284 0
-285 13 0
-285 -29 0
-13 29 285 0
-284 286 0
-285 286 0
-286 284 285 0
-15 -287 0
15 287 0
-287 288 0
-31 288 0
-288 287 31 0
-14 -289 0
14 289 0
-289 290 0
-30 290 0
-290 289 30 0
-291 -16 0
-291 32 0
16 -32 291 0
-292 16 0
-292 -32 0
-16 32 292 0
-291 293 0
-292 293 0
-293 291 292 0
-294 -293 0
-294 -283 0
-294 -177 0
-294 -286 0
293 283 177 286 294 0
-295 -176 0
-295 -233 0
-295 -236 0
-295 -175 0
176 233 236 175 295 0
-296 -8 0
-296 24 0
8 -24 296 0
-297 8 0
-297 -24 0
-8 24 297 0
-296 298 0
-297 298 0
-298 296 297 0
-299 -298 0
-299 -169 0
-299 -252 0
-299 -255 0
298 169 252 255 299 0
-300 -167 277 0
-300 167 -277 0
300 -167 -277 0
300 167 277 0
-301 -166 179 0
-301 166 -179 0
301 -166 -179 0
301 166 179 0
-302 -162 276 0
-302 162 -276 0
302 -162 -276 0
302 162 276 0
-300 -301 -302 303 0
-303 300 0
-303 301 0
-303 302 0
-3 -187 -304 0
-3 187 304 0
3 -187 304 0
3 187 -304 0
-19 -188 -305 0
-19 188 305 0
19 -188 305 0
19 188 -305 0
-5 -189 -306 0
-5 189 306 0
5 -189 306 0
5 189 -306 0
-21 -190 -307 0
-21 190 307 0
21 -190 307 0
21 190 -307 0
-7 -191 -308 0
-7 191 308 0
7 -191 308 0
7 191 -308 0
-23 -192 -309 0
-23 192 309 0
23 -192 309 0
23 192 -309 0
-9 -193 -310 0
-9 193 310 0
9 -193 310 0
9 193 -310 0
-25 -194 -311 0
-25 194 311 0
25 -194 311 0
25 194 -311 0
-11 -195 -312 0
-11 195 312 0
11 -195 312 0
11 195 -312 0
-27 -196 -313 0
-27 196 313 0
27 -196 313 0
27 196 -313 0
-12 -197 -314 0
-12 197 314 0
12 -197 314 0
12 197 -314 0
-28 -198 -315 0
-28 198 315 0
28 -198 315 0
28 198 -315 0
-13 -199 -316 0
-13 199 316 0
13 -199 316 0
13 199 -316 0
-29 -200 -317 0
-29 200 317 0
29 -200 317 0
29 200 -317 0
-14 -201 -318 0
-14 201 318 0
14 -201 318 0
14 201 -318 0
-30 -202 -319 0
-30 202 319 0
30 -202 319 0
30 202 -319 0
-16 -203 -320 0
-16 203 320 0
16 -203 320 0
16 203 -320 0
-32 -204 -321 0
-32 204 321 0
32 -204 321 0
32 204 -321 0
-168 -205 -322 0
-168 205 322 0
168 -205 322 0
168 205 -322 0
-2 -206 -323 0
-2 206 323 0
2 -206 323 0
2 206 -323 0
-18 -207 -324 0
-18 207 324 0
18 -207 324 0
18 207 -324 0
-280 -208 -325 0
-280 208 325 0
280 -208 325 0
280 208 -325 0
-4 -209 -326 0
-4 209 326 0
4 -209 326 0
4 209 -326 0
-20 -210 -327 0
-20 210 327 0
20 -210 327 0
20 210 -327 0
-3 -211 -328 0
-3 211 328 0
3 -211 328 0
3 211 -328 0
-19 -212 -329 0
-19 212 329 0
19 -212 329 0
19 212 -329 0
-1 -213 -330 0
-1 213 330 0
1 -213 330 0
1 213 -330 0
-17 -214 -331 0
-17 214 331 0
17 -214 331 0
17 214 -331 0
-283 -215 -332 0
-283 215 332 0
283 -215 332 0
283 215 -332 0
-177 -216 -333 0
-177 216 333 0
177 -216 333 0
177 216 -333 0
-286 -217 -334 0
-286 217 334 0
286 -217 334 0
286 217 -334 0
-174 -218 -335 0
-174 218 335 0
174 -218 335 0
174 218 -335 0
-288 -219 -336 0
-288 219 336 0
288 -219 336 0
288 219 -336 0
-290 -220 -337 0
-290 220 337 0
290 -220 337 0
290 220 -337 0
-171 -221 -338 0
-171 221 338 0
171 -221 338 0
171 221 -338 0
-294 -222 -339 0
-294 222 339 0
294 -222 339 0
294 222 -339 0
-247 -223 -340 0
-247 223 340 0
247 -223 340 0
247 223 -340 0
-295 -224 -341 0
-295 224 341 0
295 -224 341 0
295 224 -341 0
-267 -225 -342 0
-267 225 342 0
267 -225 342 0
267 225 -342 0
-299 -226 -343 0
-299 226 343 0
299 -226 343 0
299 226 -343 0
-173 -227 -344 0
-173 227 344 0
173 -227 344 0
173 227 -344 0
-172 -228 -345 0
-172 228 345 0
172 -228 345 0
172 228 -345 0
304 305 306 307 308 309 310 311 312 313 314 315 316 317 318 319 320 321 322 323 324 325 326 327 328 329 330 331 332 333 334 335 336 337 338 339 340 341 342 343 344 345 303 0
-11 -1165 0
27 -1165 0
11 -27 1165 0
11 -1166 0
-27 -1166 0
-11 27 1166 0
-33 -1167 0
-34 -1167 0
33 34 1167 0
-10 -1168 0
26 -1168 0
10 -26 1168 0
10 -1169 0
-26 -1169 0
-10 26 1169 0
-36 -1170 0
-37 -1170 0
36 37 1170 0
-9 -1171 0
25 -1171 0
9 -25 1171 0
9 -1172 0
-25 -1172 0
-9 25 1172 0
-39 -1173 0
-40 -1173 0
39 40 1173 0
-28 -1174 0
-42 -1174 0
28 42 1174 0
-27 -1175 0
-44 -1175 0
27 44 1175 0
-26 -1176 0
-46 -1176 0
26 46 1176 0
-25 -1177 0
-48 -1177 0
25 48 1177 0
-41 -1178 0
-47 -1178 0
41 47 1178 0
-38 -1179 0
-41 -1179 0
38 41 1179 0
-45 -1180 0
1179 -1180 0
45 -1179 1180 0
-35 -1181 0
1179 -1181 0
35 -1179 1181 0
-43 -1182 0
1181 -1182 0
43 -1181 1182 0
-50 -1183 0
-51 -1183 0
50 51 1183 0
-52 -1184 0
-53 -1184 0
52 53 1184 0
1183 -1185 0
1184 -1185 0
-1183 -1184 1185 0
-12 -1186 0
28 -1186 0
12 -28 1186 0
12 -1187 0
-28 -1187 0
-12 28 1187 0
-55 -1188 0
-56 -1188 0
55 56 1188 0
-57 -1189 0
1181 -1189 0
57 -1181 1189 0
-54 -1190 0
-58 -1190 0
54 58 1190 0
-54 -1191 0
59 -1191 0
54 -59 1191 0
54 -1192 0
-59 -1192 0
-54 59 1192 0
-60 -1193 0
-61 -1193 0
60 61 1193 0
-7 -1194 0
23 -1194 0
7 -23 1194 0
7 -1195 0
-23 -1195 0
-7 23 1195 0
-63 -1196 0
-64 -1196 0
63 64 1196 0
-6 -1197 0
22 -1197 0
6 -22 1197 0
6 -1198 0
-22 -1198 0
-6 22 1198 0
-66 -1199 0
-67 -1199 0
66 67 1199 0
-5 -1200 0
21 -1200 0
5 -21 1200 0
5 -1201 0
-21 -1201 0
-5 21 1201 0
-69 -1202 0
-70 -1202 0
69 70 1202 0
-24 -1203 0
-72 -1203 0
24 72 1203 0
-23 -1204 0
-74 -1204 0
23 74 1204 0
-22 -1205 0
-76 -1205 0
22 76 1205 0
-21 -1206 0
-78 -1206 0
21 78 1206 0
-71 -1207 0
-77 -1207 0
71 77 1207 0
-68 -1208 0
-71 -1208 0
68 71 1208 0
-75 -1209 0
1208 -1209 0
75 -1208 1209 0
-65 -1210 0
1208 -1210 0
65 -1208 1210 0
-73 -1211 0
1210 -1211 0
73 -1210 1211 0
-80 -1212 0
-81 -1212 0
80 81 1212 0
-82 -1213 0
-83 -1213 0
82 83 1213 0
1212 -1214 0
1213 -1214 0
-1212 -1213 1214 0
-8 -1215 0
24 -1215 0
8 -24 1215 0
8 -1216 0
-24 -1216 0
-8 24 1216 0
-85 -1217 0
-86 -1217 0
85 86 1217 0
-87 -1218 0
1210 -1218 0
87 -1210 1218 0
-84 -1219 0
-88 -1219 0
84 88 1219 0
-84 -1220 0
89 -1220 0
84 -89 1220 0
84 -1221 0
-89 -1221 0
-84 89 1221 0
-90 -1222 0
-91 -1222 0
90 91 1222 0
-3 -1223 0
19 -1223 0
3 -19 1223 0
3 -1224 0
-19 -1224 0
-3 19 1224 0
-93 -1225 0
-94 -1225 0
93 94 1225 0
-2 -1226 0
18 -1226 0
2 -18 1226 0
2 -1227 0
-18 -1227 0
-2 18 1227 0
-96 -1228 0
-97 -1228 0
96 97 1228 0
-1 -1229 0
17 -1229 0
1 -17 1229 0
1 -1230 0
-17 -1230 0
-1 17 1230 0
-99 -1231 0
-100 -1231 0
99 100 1231 0
-20 -1232 0
-102 -1232 0
20 102 1232 0
-19 -1233 0
-104 -1233 0
19 104 1233 0
-18 -1234 0
-106 -1234 0
18 106 1234 0
-17 -1235 0
-108 -1235 0
17 108 1235 0
-101 -1236 0
-107 -1236 0
101 107 1236 0
-98 -1237 0
-101 -1237 0
98 101 1237 0
-105 -1238 0
1237 -1238 0
105 -1237 1238 0
-95 -1239 0
1237 -1239 0
95 -1237 1239 0
-103 -1240 0
1239 -1240 0
103 -1239 1240 0
-110 -1241 0
-111 -1241 0
110 111 1241 0
-112 -1242 0
-113 -1242 0
112 113 1242 0
1241 -1243 0
1242 -1243 0
-1241 -1242 1243 0
-4 -1244 0
20 -1244 0
4 -20 1244 0
4 -1245 0
-20 -1245 0
-4 20 1245 0
-115 -1246 0
-116 -1246 0
115 116 1246 0
-117 -1247 0
1239 -1247 0
117 -1239 1247 0
-114 -1248 0
-118 -1248 0
114 118 1248 0
-114 -1249 0
119 -1249 0
114 -119 1249 0
114 -1250 0
-119 -1250 0
-114 119 1250 0
-120 -1251 0
-121 -1251 0
120 121 1251 0
-15 -1252 0
31 -1252 0
15 -31 1252 0
15 -1253 0
-31 -1253 0
-15 31 1253 0
-123 -1254 0
-124 -1254 0
123 124 1254 0
-14 -1255 0
30 -1255 0
14 -30 1255 0
14 -1256 0
-30 -1256 0
-14 30 1256 0
-126 -1257 0
-127 -1257 0
126 127 1257 0
-13 -1258 0
29 -1258 0
13 -29 1258 0
13 -1259 0
-29 -1259 0
-13 29 1259 0
-129 -1260 0
-130 -1260 0
129 130 1260 0
-32 -1261 0
-132 -1261 0
32 132 1261 0
-31 -1262 0
-134 -1262 0
31 134 1262 0
-30 -1263 0
-136 -1263 0
30 136 1263 0
-29 -1264 0
-138 -1264 0
29 138 1264 0
-131 -1265 0
-137 -1265 0
131 137 1265 0
-128 -1266 0
-131 -1266 0
128 131 1266 0
-135 -1267 0
1266 -1267 0
135 -1266 1267 0
-125 -1268 0
1266 -1268 0
125 -1266 1268 0
-133 -1269 0
1268 -1269 0
133 -1268 1269 0
-140 -1270 0
-141 -1270 0
140 141 1270 0
-142 -1271 0
-143 -1271 0
142 143 1271 0
1270 -1272 0
1271 -1272 0
-1270 -1271 1272 0
-16 -1273 0
32 -1273 0
16 -32 1273 0
16 -1274 0
-32 -1274 0
-16 32 1274 0
-145 -1275 0
-146 -1275 0
145 146 1275 0
-147 -1276 0
1268 -1276 0
147 -1268 1276 0
-144 -1277 0
-148 -1277 0
144 148 1277 0
-149 -1278 0
-150 -1278 0
149 150 1278 0
-59 -1279 0
-152 -1279 0
59 152 1279 0
-89 -1280 0
-154 -1280 0
89 154 1280 0
-119 -1281 0
-156 -1281 0
119 156 1281 0
-122 -1282 0
-155 -1282 0
122 155 1282 0
-92 -1283 0
-122 -1283 0
92 122 1283 0
-153 -1284 0
1283 -1284 0
153 -1283 1284 0
-62 -1285 0
1283 -1285 0
62 -1283 1285 0
-151 -1286 0
1285 -1286 0
151 -1285 1286 0
-158 -1287 0
-159 -1287 0
158 159 1287 0
-160 -1288 0
-161 -1288 0
160 161 1288 0
1287 -1289 0
1288 -1289 0
-1287 -1288 1289 0
-144 -1290 0
149 -1290 0
144 -149 1290 0
144 -1291 0
-149 -1291 0
-144 149 1291 0
-163 -1292 0
-164 -1292 0
163 164 1292 0
-165 -1293 0
1285 -1293 0
165 -1285 1293 0
-162 -1294 0
-166 -1294 0
162 166 1294 0
-231 -1295 0
-232 -1295 0
231 232 1295 0
-234 -1296 0
-235 -1296 0
234 235 1296 0
-28 -1297 0
-237 -1297 0
28 237 1297 0
-26 -1298 0
-239 -1298 0
26 239 1298 0
-25 -1299 0
-241 -1299 0
25 241 1299 0
-243 -1300 0
-244 -1300 0
243 244 1300 0
-245 -1301 0
-246 -1301 0
245 246 1301 0
1300 -1302 0
1301 -1302 0
-1300 -1301 1302 0
-250 -1303 0
-251 -1303 0
250 251 1303 0
-253 -1304 0
-254 -1304 0
253 254 1304 0
-24 -1305 0
-257 -1305 0
24 257 1305 0
-23 -1306 0
-259 -1306 0
23 259 1306 0
-22 -1307 0
-261 -1307 0
22 261 1307 0
-255 -1308 0
-262 -1308 0
255 262 1308 0
-252 -1309 0
-255 -1309 0
252 255 1309 0
-260 -1310 0
1309 -1310 0
260 -1309 1310 0
-263 -1311 0
-264 -1311 0
263 264 1311 0
-265 -1312 0
-266 -1312 0
265 266 1312 0
1311 -1313 0
1312 -1313 0
-1311 -1312 1313 0
-272 -1314 0
-273 -1314 0
272 273 1314 0
-274 -1315 0
-275 -1315 0
274 275 1315 0
1314 -1316 0
1315 -1316 0
-1314 -1315 1316 0
-278 -1317 0
-279 -1317 0
278 279 1317 0
-281 -1318 0
-282 -1318 0
281 282 1318 0
-284 -1319 0
-285 -1319 0
284 285 1319 0
-31 -1320 0
-287 -1320 0
31 287 1320 0
-30 -1321 0
-289 -1321 0
30 289 1321 0
-291 -1322 0
-292 -1322 0
291 292 1322 0
-296 -1323 0
-297 -1323 0
296 297 1323 0
167 -1324 0
-277 -1324 0
-167 277 1324 0
-167 -1325 0
277 -1325 0
167 -277 1325 0
-1324 -1326 0
-1325 -1326 0
1324 1325 1326 0
162 -1327 0
-276 -1327 0
-162 276 1327 0
-162 -1328 0
276 -1328 0
162 -276 1328 0
-1327 -1329 0
-1328 -1329 0
1327 1328 1329 0
300 -1330 0
301 -1330 0
-300 -301 1330 0
302 -1331 0
1330 -1331 0
-302 -1330 1331 0
-3 -1332 0
-187 -1332 0
3 187 1332 0
3 -1333 0
187 -1333 0
-3 -187 1333 0
-1332 -1334 0
-1333 -1334 0
1332 1333 1334 0
-19 -1335 0
-188 -1335 0
19 188 1335 0
19 -1336 0
188 -1336 0
-19 -188 1336 0
-1335 -1337 0
-1336 -1337 0
1335 1336 1337 0
-5 -1338 0
-189 -1338 0
5 189 1338 0
5 -1339 0
189 -1339 0
-5 -189 1339 0
-1338 -1340 0
-1339 -1340 0
1338 1339 1340 0
-21 -1341 0
-190 -1341 0
21 190 1341 0
21 -1342 0
190 -1342 0
-21 -190 1342 0
-1341 -1343 0
-1342 -1343 0
1341 1342 1343 0
-7 -1344 0
-191 -1344 0
7 191 1344 0
7 -1345 0
191 -1345 0
-7 -191 1345 0
-1344 -1346 0
-1345 -1346 0
1344 1345 1346 0
-23 -1347 0
-192 -1347 0
23 192 1347 0
23 -1348 0
192 -1348 0
-23 -192 1348 0
-1347 -1349 0
-1348 -1349 0
1347 1348 1349 0
-9 -1350 0
-193 -1350 0
9 193 1350 0
9 -1351 0
193 -1351 0
-9 -193 1351 0
-1350 -1352 0
-1351 -1352 0
1350 1351 1352 0
-25 -1353 0
-194 -1353 0
25 194 1353 0
25 -1354 0
194 -1354 0
-25 -194 1354 0
-1353 -1355 0
-1354 -1355 0
1353 1354 1355 0
-11 -1356 0
-195 -1356 0
11 195 1356 0
11 -1357 0
195 -1357 0
-11 -195 1357 0
-1356 -1358 0
-1357 -1358 0
1356 1357 1358 0
-27 -1359 0
-196 -1359 0
27 196 1359 0
27 -1360 0
196 -1360 0
-27 -196 1360 0
-1359 -1361 0
-1360 -1361 0
1359 1360 1361 0
-12 -1362 0
-197 -1362 0
12 197 1362 0
12 -1363 0
197 -1363 0
-12 -197 1363 0
-1362 -1364 0
-1363 -1364 0
1362 1363 1364 0
-28 -1365 0
-198 -1365 0
28 198 1365 0
28 -1366 0
198 -1366 0
-28 -198 1366 0
-1365 -1367 0
-1366 -1367 0
1365 1366 1367 0
-13 -1368 0
-199 -1368 0
13 199 1368 0
13 -1369 0
199 -1369 0
-13 -199 1369 0
-1368 -1370 0
-1369 -1370 0
1368 1369 1370 0
-29 -1371 0
-200 -1371 0
29 200 1371 0
29 -1372 0
200 -1372 0
-29 -200 1372 0
-1371 -1373 0
-1372 -1373 0
1371 1372 1373 0
-14 -1374 0
-201 -1374 0
14 201 1374 0
14 -1375 0
201 -1375 0
-14 -201 1375 0
-1374 -1376 0
-1375 -1376 0
1374 1375 1376 0
-30 -1377 0
-202 -1377 0
30 202 1377 0
30 -1378 0
202 -1378 0
-30 -202 1378 0
-1377 -1379 0
-1378 -1379 0
1377 1378 1379 0
-16 -1380 0
-203 -1380 0
16 203 1380 0
16 -1381 0
203 -1381 0
-16 -203 1381 0
-1380 -1382 0
-1381 -1382 0
1380 1381 1382 0
-32 -1383 0
-204 -1383 0
32 204 1383 0
32 -1384 0
204 -1384 0
-32 -204 1384 0
-1383 -1385 0
-1384 -1385 0
1383 1384 1385 0
-2 -1386 0
-206 -1386 0
2 206 1386 0
2 -1387 0
206 -1387 0
-2 -206 1387 0
-1386 -1388 0
-1387 -1388 0
1386 1387 1388 0
-18 -1389 0
-207 -1389 0
18 207 1389 0
18 -1390 0
207 -1390 0
-18 -207 1390 0
-1389 -1391 0
-1390 -1391 0
1389 1390 1391 0
-1229 -1392 0
-1230 -1392 0
1229 1230 1392 0
208 -1393 0
-280 -1393 0
-208 280 1393 0
1392 -1394 0
1393 -1394 0
-1392 -1393 1394 0
-208 -1395 0
280 -1395 0
208 -280 1395 0
-1392 -1396 0
1395 -1396 0
1392 -1395 1396 0
-1394 -1397 0
-1396 -1397 0
1394 1396 1397 0
-4 -1398 0
-209 -1398 0
4 209 1398 0
4 -1399 0
209 -1399 0
-4 -209 1399 0
-1398 -1400 0
-1399 -1400 0
1398 1399 1400 0
-20 -1401 0
-210 -1401 0
20 210 1401 0
20 -1402 0
210 -1402 0
-20 -210 1402 0
-1401 -1403 0
-1402 -1403 0
1401 1402 1403 0
-3 -1404 0
-211 -1404 0
3 211 1404 0
3 -1405 0
211 -1405 0
-3 -211 1405 0
-1404 -1406 0
-1405 -1406 0
1404 1405 1406 0
-19 -1407 0
-212 -1407 0
19 212 1407 0
19 -1408 0
212 -1408 0
-19 -212 1408 0
-1407 -1409 0
-1408 -1409 0
1407 1408 1409 0
-1 -1410 0
-213 -1410 0
1 213 1410 0
1 -1411 0
213 -1411 0
-1 -213 1411 0
-1410 -1412 0
-1411 -1412 0
1410 1411 1412 0
-17 -1413 0
-214 -1413 0
17 214 1413 0
17 -1414 0
214 -1414 0
-17 -214 1414 0
-1413 -1415 0
-1414 -1415 0
1413 1414 1415 0
-281 -1416 0
-1253 -1416 0
281 1253 1416 0
283 -1417 0
-1416 -1417 0
-283 1416 1417 0
-215 -1418 0
-1417 -1418 0
215 1417 1418 0
-283 -1419 0
-1253 -1419 0
283 1253 1419 0
215 -1420 0
-1419 -1420 0
-215 1419 1420 0
-31 -1421 0
281 -1421 0
31 -281 1421 0
-1420 -1422 0
-1421 -1422 0
1420 1421 1422 0
-1418 -1423 0
1422 -1423 0
1418 -1422 1423 0
-1258 -1424 0
-1259 -1424 0
1258 1259 1424 0
217 -1425 0
-286 -1425 0
-217 286 1425 0
1424 -1426 0
1425 -1426 0
-1424 -1425 1426 0
-217 -1427 0
286 -1427 0
217 -286 1427 0
-1424 -1428 0
1427 -1428 0
1424 -1427 1428 0
-1426 -1429 0
-1428 -1429 0
1426 1428 1429 0
-219 -1430 0
-1253 -1430 0
219 1253 1430 0
219 -1431 0
1253 -1431 0
-219 -1253 1431 0
-1430 -1432 0
-1431 -1432 0
1430 1431 1432 0
-220 -1433 0
-290 -1433 0
220 290 1433 0
220 -1434 0
290 -1434 0
-220 -290 1434 0
-1433 -1435 0
-1434 -1435 0
1433 1434 1435 0
-222 -1436 0
-294 -1436 0
222 294 1436 0
222 -1437 0
294 -1437 0
-222 -294 1437 0
-1436 -1438 0
-1437 -1438 0
1436 1437 1438 0
-223 -1439 0
-247 -1439 0
223 247 1439 0
223 -1440 0
247 -1440 0
-223 -247 1440 0
-1439 -1441 0
-1440 -1441 0
1439 1440 1441 0
-224 -1442 0
-295 -1442 0
224 295 1442 0
224 -1443 0
295 -1443 0
-224 -295 1443 0
-1442 -1444 0
-1443 -1444 0
1442 1443 1444 0
-225 -1445 0
-267 -1445 0
225 267 1445 0
225 -1446 0
267 -1446 0
-225 -267 1446 0
-1445 -1447 0
-1446 -1447 0
1445 1446 1447 0
-226 -1448 0
-299 -1448 0
226 299 1448 0
226 -1449 0
299 -1449 0
-226 -299 1449 0
-1448 -1450 0
-1449 -1450 0
1448 1449 1450 0
227 -1451 0
-270 -1451 0
-227 270 1451 0
-227 -1452 0
270 -1452 0
227 -270 1452 0
-1451 -1453 0
-1452 -1453 0
1451 1452 1453 0
